p cnf 17 18
-2 15 -10 0
-3 -17 2 -4 -1 0
5 -6 0
-15 -3 11 4 0
-1 -6 -10 -2 -12 0
-6 13 0
-7 4 12 -17 5 -1 11 -15 9 -13 -16 -2 8 0
13 -7 8 1 14 17 -9 6 -5 11 -15 -10 0
14 -2 5 0
4 11 -5 -8 7 0
-4 -10 16 0
7 16 8 -12 9 -6 10 -14 15 -1 -13 11 2 4 -17 3 0
-3 -8 15 6 -16 -4 -2 -7 -12 -9 17 11 -10 13 0
-8 10 14 -6 -16 3 -9 -13 5 -4 -2 12 -1 -7 -17 0
2 -4 -13 10 3 5 11 -6 8 -16 14 -1 15 -17 -12 0
1 -3 0
-13 16 0
5 -7 -13 0
